9128
17688
6125
1309
20610
8880
19062
21489
2448
3367
10024
6210
16467
1326
1411
4552
16834
30636
1305
30600
13470
14112
2506
27540
13068
9020
3600
6150
17460
2037
9592
1896
12168
576
1602
12192
15678
22386
5868
18649
2100
3028
12138
2970
3468
18468
1402
9720
4616
16050
17948
